23125
1 0 0 0 0 0 0 0 0 0 0 1 0 0 1 0 0 1 0 0 1 0 0 0 1 1 0 0 0 0 
14 25 14 14 20 24 14 24 20 0 24 20 20 20 11 14 17 11 0 0 14 0 25 0 25 14 0 24 11 24 0 0 14 11 20 20 25 24 0 11 0 20 24 20 24 11 0 14 24 20 0 20 11 0 14 20 14 25 14 14 0 24 20 0 11 0 24 17 25 24 20 20 11 11 24 20 24 14 11 25 14 11 20 17 11 0 11 25 20 24 17 24 0 0 25 25 17 14 0 20 14 0 11 0 11 11 25 11 20 24 14 17 17 25 25 11 24 24 25 24 11 14 24 14 14 24 11 24 17 25 0 11 11 24 20 20 0 24 20 11 0 20 20 20 14 24 11 11 17 11 
